# Solution for model ComputeNE_MIP
# Objective value = 4
sigma_0_0 0
sigma_0_1 -1.1102230246251565e-16
sigma_0_2 1
sigma_1_0 0
sigma_1_1 1
sigma_2_0 0
sigma_2_1 1
sigma_3_0 0
sigma_3_1 1
activ_0_0 0
activ_0_1 0
activ_0_2 1
activ_1_0 0
activ_1_1 1
activ_2_0 0
activ_2_1 1
activ_3_0 0
activ_3_1 1
v_0 1.1290234941150266e+03
v_1 1.3572866307816792e+03
v_2 4.1733501453025820e+03
v_3 2.8775974922825408e+03
ArtP_R0 0
ArtN_R0 0
ArtN_R1 0
ArtP_R2 0
ArtN_R2 0
ArtN_R3 0
ArtP_R4 0
ArtN_R4 0
ArtN_R5 0
ArtP_R6 0
ArtN_R6 0
ArtN_R7 0
ArtN_R8 0
ArtP_R9 0
ArtN_R10 0
ArtN_R11 0
ArtP_R12 0
ArtN_R13 0
ArtN_R14 0
ArtP_R15 0
ArtN_R16 0
ArtN_R17 0
ArtP_R18 0
ArtN_R19 0
ArtN_R20 0
ArtP_R21 0
ArtN_R22 0
ArtN_R23 0
ArtP_R24 0
ArtN_R25 0
ArtN_R26 0
ArtP_R27 0
ArtN_R28 0
ArtN_R29 0
ArtP_R30 0
ArtN_R31 0
ArtN_R32 0
ArtP_R33 0
ArtN_R34 0
